S = 5;
start = [|0,0,1,0,2,0,0,8,0,0,0,0,0,16,0,0,0,13,0,0,12,0,0,19,21|
8,4,9,24,0,0,0,0,0,0,0,0,0,0,1,5,16,0,0,3,0,0,0,0,0|
0,0,0,21,0,0,22,0,0,10,0,3,0,17,0,0,0,7,4,0,0,0,0,9,16|
0,0,0,13,0,0,0,20,5,0,8,0,0,21,0,0,0,0,0,0,0,0,0,0,17|
0,17,0,0,0,0,23,1,0,0,0,0,15,0,0,0,0,0,0,0,3,0,0,0,0|
13,8,0,0,0,0,0,16,10,0,0,2,7,0,0,0,0,18,0,0,0,0,17,0,19|
0,0,0,15,0,0,0,0,0,0,0,0,0,0,0,0,0,0,0,0,0,23,0,0,0|
0,0,0,0,1,0,0,0,12,0,0,0,0,0,0,0,8,2,0,15,0,0,0,0,0|
0,0,0,0,0,0,0,0,0,0,0,0,0,0,0,0,19,23,0,0,0,0,0,0,0|
0,0,0,0,0,4,8,6,0,0,0,23,0,0,17,7,12,0,0,0,5,0,0,0,18|
0,0,0,6,0,0,0,15,11,0,5,21,0,9,0,13,0,25,0,7,16,0,19,0,0|
0,0,0,0,0,5,0,0,0,0,25,0,0,0,10,0,0,21,0,0,17,0,0,1,0|
0,0,0,0,0,0,0,0,0,0,0,11,3,1,0,0,0,0,15,0,0,0,0,0,9|
21,14,0,0,11,0,0,0,6,0,0,15,0,0,20,16,0,8,0,5,0,3,0,25,23|
0,0,22,0,0,0,0,0,1,0,0,0,0,0,0,0,0,0,0,0,21,0,2,8,15|
0,0,0,0,3,0,16,21,0,0,0,12,0,0,23,0,0,0,0,0,0,20,0,0,0|
14,0,0,0,12,8,0,0,0,0,13,0,0,11,0,0,0,0,6,0,0,9,0,0,0|
0,2,19,0,20,25,0,0,0,5,0,0,21,0,15,0,0,9,0,23,0,12,13,0,0|
0,6,0,0,0,0,0,19,0,0,2,0,22,0,0,0,0,0,0,0,0,0,0,0,24|
0,0,0,0,21,0,14,13,0,0,16,0,0,8,0,24,3,0,12,18,6,0,0,0,0|
23,24,0,0,6,11,20,0,0,0,0,0,9,13,0,0,1,0,25,0,0,0,0,5,0|
0,12,0,5,0,0,0,0,0,14,0,0,0,0,22,9,0,0,0,8,0,6,0,0,0|
0,9,0,2,7,17,0,0,0,16,24,5,0,0,0,0,0,0,18,0,0,0,0,0,0|
0,0,11,0,0,0,0,9,2,0,0,0,0,0,0,0,5,22,0,0,23,16,0,0,0|
0,0,0,8,22,0,0,0,0,0,0,4,0,0,21,23,15,0,0,11,0,0,9,0,3|];